200
1000
377
375
373
369
368
362
362
361
360
360
358
357
357
356
355
354
348
343
340
339
338
336
332
329
328
327
324
321
321
320
320
320
318
314
311
310
309
305
303
302
302
301
299
297
297
295
292
291
290
289
289
288
287
286
280
279
277
275
274
265
264
257
257
256
255
247
247
246
246
243
242
240
240
237
236
232
230
230
229
227
226
223
221
219
217
213
213
212
209
208
208
207
202
201
200
199
198
197
193
191
189
188
188
187
184
182
182
181
181
180
180
180
180
177
176
170
169
169
169
164
164
163
163
156
156
156
153
148
147
145
141
139
134
134
134
132
128
125
124
123
123
122
121
120
116
116
116
115
115
113
109
104
104
104
103
102
89
88
86
85
84
84
84
82
80
77
76
75
74
74
74
73
68
67
66
65
62
62
59
51
49
49
49
48
48
46
46
44
43
43
42
39
38
33
30
29
27
26
26
24
